Route #1: 386 212 758 290 655 449 313 144
Route #2: 854 927 516 729 625 51 796 866
Route #3: 68 214 819 281 800 634 632 53 82 106 610
Route #4: 14 61 845 101 172 277 971 173 247 110
Route #5: 650 13 646 90 153 348 181 37 351 139
Route #6: 537 372 108 894 941 686 921 613 297
Route #7: 487 743 559 802 695 589 201 706 541
Route #8: 89 928 104 319 322 70 116 787 916 255 257
Route #9: 142 713 540 986 93 967 21 283 712
Route #10: 970 911 74 278 407 28 790 751
Route #11: 618 943 656 783 132 772 223 635 694 65 877
Route #12: 893 384 607 630 501 253 704 459
Route #13: 527 697 775 299 235 455 461 753 687 478
Route #14: 122 586 547 148 264 915 664 762 302 718 411
Route #15: 726 213 932 532 489 117 26 721 898 844
Distance: 36027
